p cnf 23 23
-1 5 7 16 18 21 0 
-2 -3 22 0 
-4 9 -5 1 7 16 18 22 0 
-4 9 -5 1 7 16 18 21 0 
-5 1 7 16 18 -6 21 0 
-5 1 7 16 18 21 0 
-7 1 5 16 18 22 0 
-7 1 5 16 18 21 0 
-8 -5 1 7 16 18 22 0 
-9 4 -10 -11 15 -12 22 0 
-9 4 -10 -11 15 -12 21 0 
-12 -5 1 7 16 18 22 0 
-13 21 0 
-14 -12 22 0 
-11 15 22 0 
-5 1 7 16 18 22 0 
-15 11 -5 1 7 16 18 21 0 
-16 1 5 7 18 21 0 
-6 -17 -15 11 -9 4 -18 1 5 7 16 22 0 
-19 20 22 0 
-11 15 -12 22 0 
-20 19 23 0 
-15 11 -12 -9 4 -18 1 5 7 16 21 0 
